NAME: eil101
TYPE: MST
DIMENSION: 101
MST_SECTION
37 98
68 80
59 92
59 99
96 99
3 77
33 81
37 92
37 100
85 93
93 99
59 93
95 97
6 94
21 73
22 74
59 96
72 73
72 74
85 91
85 98
91 100
92 97
92 98
93 98
94 95
98 100
3 79
25 55
59 98
74 75
92 95
59 95
94 96
5 84
22 75
37 59
40 58
56 75
76 77
6 96
22 41
60 83
87 97
95 96
1 69
5 60
13 94
16 61
21 72
32 90
37 85
37 93
53 101
61 85
63 90
73 74
85 100
91 98
92 93
92 99
27 101
30 70
31 88
34 78
59 97
68 77
92 96
93 96
6 89
13 95
16 91
37 91
37 97
53 58
98 99
48 82
50 76
59 85
72 75
95 99
14 44
33 79
78 79
85 99
92 100
2 57
7 82
59 94
61 91
91 93
6 95
9 81
37 99
61 93
85 92
93 100
97 98
3 68
13 58
EOF